Maximize
  - 2.932655306256 edge_0_1_0_0 - 2.69349391269 edge_0_2_0_0
   - 0.22575744650784 edge_0_3_0_0 - 3.0454402965485 edge_0_5_0_0
   - 3.17138 edge_0_7_0_0 - 3.379696639337201 edge_0_14_0_0
   - 2.3699220121926 edge_0_15_0_0 - 3.2694501311676 edge_0_16_0_0
   - 6.117983555934001 edge_0_17_0_0 - 5.371596474034 edge_0_18_0_0
   + 0.22111857485168 edge_1_2_0_0 - 0.0303137944516173 edge_1_3_0_0
   - 0.4709899838477036 edge_1_5_0_0 - 1.397150865663077 edge_1_6_0_0
   - 0.7790254283476 edge_1_7_0_0 - 0.0266892447672609 edge_1_8_0_0
   - 0.4114922666208338 edge_1_9_0_0 + 0.9828679000899608 edge_2_1_0_0
   + 0.7686646157534817 edge_2_3_0_0 + 1.321776068365625 edge_2_4_0_0
   + 1.405799796274798 edge_2_5_0_0 + 1.4803122362962 edge_2_7_0_0
   + 1.005965155978918 edge_2_8_0_0 + 1.19536264282789 edge_2_9_0_0
   + 0.1275439614100488 edge_2_11_0_0 - 0.14245238111326 edge_2_12_0_0
   - 0.018892949609952 edge_2_13_0_0 + 0.00356402714974822 edge_2_14_0_0
   + 0.0714184882747167 edge_2_15_0_0 - 0.3418716197192441 edge_2_16_0_0
   - 0.5981309325442874 edge_2_17_0_0 - 0.3349775083630626 edge_2_18_0_0
   + 1.1952 edge_2_20_0_0 + 0.8538357398837518 edge_3_1_0_0
   + 2.3069178408432 edge_3_2_0_0 + 0.9920571578966249 edge_3_4_0_0
   + 2.7062719633372 edge_3_5_0_0 + 0.3517446181584423 edge_3_6_0_0
   + 1.6371272374484 edge_3_7_0_0 + 2.582115886528641 edge_3_8_0_0
   + 3.028111666776641 edge_3_9_0_0 + 2.517737083956471 edge_3_11_0_0
   + 1.835688619982216 edge_3_12_0_0 - 0.3162097060636882 edge_3_13_0_0
   + 0.6318127162066867 edge_3_14_0_0 + 0.703134893377135 edge_3_15_0_0
   + 0.111156704540605 edge_3_16_0_0 + 0.3027695646618178 edge_3_17_0_0
   + 0.0246070479658851 edge_3_18_0_0 + 0.106222617924087 edge_3_19_0_0
   + 6.036601648689142 edge_3_20_0_0 - 0.5312000323629081 edge_4_1_0_0
   - 0.4145400236633292 edge_4_2_0_0 - 0.3851384911843857 edge_4_3_0_0
   + 0.18201699152392 edge_4_7_0_0 - 0.1661328070776772 edge_4_15_0_0
   - 0.5111445426146013 edge_4_17_0_0 + 0.5671794778283641 edge_5_1_0_0
   + 0.955374 edge_5_2_0_0 + 2.779645694069332 edge_5_3_0_0
   + 3.848176408963551 edge_5_4_0_0 + 0.7508655222016 edge_5_6_0_0
   + 3.046698169598 edge_5_7_0_0 + 1.75530623706091 edge_5_8_0_0
   + 1.362934437588 edge_5_9_0_0 + 1.44319764911542 edge_5_11_0_0
   + 1.240320709567191 edge_5_12_0_0 + 0.2539090019652468 edge_5_13_0_0
   + 0.0120034487171614 edge_5_14_0_0 - 0.0894882627762559 edge_5_15_0_0
   - 0.6017529452328 edge_5_16_0_0 + 0.19280453179414 edge_5_17_0_0
   - 0.5677907196712548 edge_5_18_0_0 + 0.133999 edge_5_19_0_0
   + 1.806379761189843 edge_5_20_0_0 - 0.2617508018227779 edge_6_8_0_0
   + 0.6103587696744339 edge_6_9_0_0 - 0.14122396572963 edge_7_1_0_0
   - 0.24441688826456 edge_7_2_0_0 + 0.3717334238123 edge_7_3_0_0
   + 2.1196288867768 edge_7_4_0_0 + 1.1327372686255 edge_7_5_0_0
   + 3.1692357509679 edge_7_6_0_0 + 1.4229867124576 edge_7_8_0_0
   + 0.78687155519802 edge_7_9_0_0 + 0.67995556575036 edge_7_11_0_0
   + 0.16684266199642 edge_7_12_0_0 - 0.31847846771173 edge_7_13_0_0
   - 0.13057229419972 edge_7_14_0_0 + 0.7295595607739115 edge_7_15_0_0
   + 0.1767560435511671 edge_7_16_0_0 + 0.1010941652153568 edge_7_17_0_0
   - 0.6787509271106305 edge_7_19_0_0 + 2.172726229584202 edge_7_20_0_0
   - 0.19481645405924 edge_8_7_0_0 + 0.1047498183355117 edge_8_9_0_0
   + 0.2417583408787612 edge_8_11_0_0 - 1.508756941569088 edge_9_5_0_0
   - 0.7687333935480001 edge_9_7_0_0 + 0.4733986640779211 edge_9_8_0_0
   + 0.6150618665789298 edge_9_11_0_0 + 0.6292280324030715 edge_9_12_0_0
   - 0.3796366342891708 edge_9_13_0_0 - 0.2274773725815454 edge_11_1_0_0
   - 0.4997837432202097 edge_11_2_0_0 - 0.3658054273294961 edge_11_3_0_0
   + 0.4450696876122142 edge_11_5_0_0 + 0.2818197246100022 edge_11_6_0_0
   + 0.12193556346912 edge_11_7_0_0 + 0.1934078801915569 edge_11_8_0_0
   + 0.9810598390992022 edge_11_9_0_0 + 0.2960004700283002 edge_11_11_0_0
   + 1.388569581919146 edge_11_12_0_0 + 0.5595224162992896 edge_11_13_0_0
   + 0.8319779469207671 edge_11_14_0_0 + 0.2912824046762589 edge_11_15_0_0
   + 0.038715871527673 edge_11_16_0_0 + 0.1241920527397468 edge_11_17_0_0
   + 0.2474477140089519 edge_11_18_0_0 + 0.1120338737253974 edge_11_19_0_0
   + 2.2804787115745 edge_11_20_0_0 - 0.9018029442039989 edge_12_3_0_0
   - 1.612065339293017 edge_12_5_0_0 - 0.4792452932310511 edge_12_9_0_0
   + 0.1470599665373578 edge_12_11_0_0 - 0.5181242310299842 edge_12_13_0_0
   - 0.2734649721392418 edge_12_14_0_0 - 0.0925726818445082 edge_12_15_0_0
   - 1.985652495644679 edge_13_1_0_0 - 0.7552191613032001 edge_13_2_0_0
   - 0.2381696832701835 edge_13_3_0_0 - 0.0616951448877334 edge_13_5_0_0
   - 1.104758092101731 edge_13_8_0_0 - 0.9831154411972953 edge_13_9_0_0
   + 0.60108881047486 edge_13_11_0_0 + 0.4334349266424669 edge_13_12_0_0
   + 0.4272278007831489 edge_13_14_0_0 + 0.3103058195039983 edge_13_15_0_0
   - 0.1858049872946707 edge_13_16_0_0 - 0.1552638468270219 edge_13_17_0_0
   - 0.2066640982626476 edge_13_18_0_0 - 0.3662574965723736 edge_13_19_0_0
   + 0.3145698595301669 edge_13_20_0_0 - 0.276704856527969 edge_14_1_0_0
   - 0.1048781008598511 edge_14_2_0_0 - 0.1562365745147873 edge_14_3_0_0
   - 0.2599705122915257 edge_14_5_0_0 - 0.6960200674220315 edge_14_6_0_0
   - 0.8584240187544001 edge_14_7_0_0 - 0.1770174773038557 edge_14_8_0_0
   - 0.6219475135143409 edge_14_9_0_0 + 0.197562316809834 edge_14_11_0_0
   + 0.6356790395029077 edge_14_12_0_0 + 0.1404949065500266 edge_14_13_0_0
   + 2.000472558452743 edge_14_15_0_0 - 0.3732885507352743 edge_14_16_0_0
   + 0.7838384939330026 edge_14_17_0_0 - 0.3127221286269174 edge_14_18_0_0
   + 0.5604966059507274 edge_14_19_0_0 + 1.621742392486235 edge_14_20_0_0
   - 0.6006710714495362 edge_15_1_0_0 - 0.607663278423847 edge_15_2_0_0
   - 0.4414183635400475 edge_15_3_0_0 + 0.2267825894218866 edge_15_4_0_0
   - 0.6799114392653395 edge_15_5_0_0 + 0.3065097218580314 edge_15_7_0_0
   - 0.2705978362696944 edge_15_11_0_0 + 0.074189113067035 edge_15_12_0_0
   + 0.3382574375782274 edge_15_13_0_0 + 0.5696117210444152 edge_15_14_0_0
   - 0.4648419037072362 edge_15_15_0_0 + 1.313906889641417 edge_15_16_0_0
   + 0.9174811794441512 edge_15_17_0_0 + 0.3274556778980239 edge_15_18_0_0
   + 0.7145104925375999 edge_15_19_0_0 + 0.7256483702952 edge_15_20_0_0
   - 0.9403406048057119 edge_16_2_0_0 - 0.5849988468544314 edge_16_3_0_0
   - 0.1771461036016677 edge_16_4_0_0 - 1.092144613382331 edge_16_5_0_0
   - 0.1324417661339163 edge_16_12_0_0 - 0.4213692208824473 edge_16_13_0_0
   + 0.0274114011610595 edge_16_14_0_0 + 1.04509758186657 edge_16_15_0_0
   + 1.075426029211248 edge_16_17_0_0 + 0.7233222439349203 edge_16_18_0_0
   + 0.0975534137120741 edge_16_19_0_0 + 1.143050633129625 edge_16_20_0_0
   + 0.0862609527705074 edge_17_1_0_0 - 0.5691104697002199 edge_17_2_0_0
   - 0.2651621787327152 edge_17_3_0_0 + 0.0879774919766645 edge_17_4_0_0
   - 0.3091232872052252 edge_17_5_0_0 - 0.1428825529274299 edge_17_7_0_0
   + 0.1856173366179546 edge_17_8_0_0 + 0.5197653573149856 edge_17_11_0_0
   + 1.058936127781662 edge_17_12_0_0 + 0.4562055084681322 edge_17_13_0_0
   + 0.9040089981099833 edge_17_14_0_0 + 1.610179803178364 edge_17_15_0_0
   + 3.15461484726211 edge_17_16_0_0 + 1.330020041450183 edge_17_18_0_0
   + 0.6457735924803414 edge_17_19_0_0 + 1.221912077147122 edge_17_20_0_0
   - 0.0854833280439901 edge_18_15_0_0 + 0.4830111470411834 edge_18_16_0_0
   + 0.3698874074454524 edge_18_17_0_0 + 0.9010984383264564 edge_18_19_0_0
   + 0.1699154237500173 edge_18_20_0_0 - 0.9578087498109944 edge_19_1_0_0
   - 1.031141702728083 edge_19_2_0_0 - 0.422531536058434 edge_19_3_0_0
   - 0.0717924953632339 edge_19_12_0_0 + 0.2627609960198766 edge_19_13_0_0
   + 0.315033568745496 edge_19_14_0_0 + 0.4318107041537669 edge_19_15_0_0
   + 0.3529630441994264 edge_19_16_0_0 + 0.4416845522447836 edge_19_17_0_0
   + 1.79412031779338 edge_19_18_0_0 + 1.645783141973865 edge_19_20_0_0
   - 0.65684031929075 edge_20_18_0_0 - 0.427812 edge_20_19_0_0
Subject To
 one_parent_1: edge_0_1_0_0 + edge_2_1_0_0 + edge_3_1_0_0 + edge_4_1_0_0
   + edge_5_1_0_0 + edge_7_1_0_0 + edge_11_1_0_0 + edge_13_1_0_0
   + edge_14_1_0_0 + edge_15_1_0_0 + edge_17_1_0_0 + edge_19_1_0_0 = 1
 consume_one_flow_unit_1: flow_0_1_0_0 - flow_1_2_0_0 - flow_1_3_0_0
   - flow_1_5_0_0 - flow_1_6_0_0 - flow_1_7_0_0 - flow_1_8_0_0
   - flow_1_9_0_0 + flow_2_1_0_0 + flow_3_1_0_0 + flow_4_1_0_0
   + flow_5_1_0_0 + flow_7_1_0_0 + flow_11_1_0_0 + flow_13_1_0_0
   + flow_14_1_0_0 + flow_15_1_0_0 + flow_17_1_0_0 + flow_19_1_0_0 = 1
 one_parent_2: edge_0_2_0_0 + edge_1_2_0_0 + edge_3_2_0_0 + edge_4_2_0_0
   + edge_5_2_0_0 + edge_7_2_0_0 + edge_11_2_0_0 + edge_13_2_0_0
   + edge_14_2_0_0 + edge_15_2_0_0 + edge_16_2_0_0 + edge_17_2_0_0
   + edge_19_2_0_0 = 1
 consume_one_flow_unit_2: flow_0_2_0_0 + flow_1_2_0_0 - flow_2_1_0_0
   - flow_2_3_0_0 - flow_2_4_0_0 - flow_2_5_0_0 - flow_2_7_0_0
   - flow_2_8_0_0 - flow_2_9_0_0 - flow_2_11_0_0 - flow_2_12_0_0
   - flow_2_13_0_0 - flow_2_14_0_0 - flow_2_15_0_0 - flow_2_16_0_0
   - flow_2_17_0_0 - flow_2_18_0_0 - flow_2_20_0_0 + flow_3_2_0_0
   + flow_4_2_0_0 + flow_5_2_0_0 + flow_7_2_0_0 + flow_11_2_0_0
   + flow_13_2_0_0 + flow_14_2_0_0 + flow_15_2_0_0 + flow_16_2_0_0
   + flow_17_2_0_0 + flow_19_2_0_0 = 1
 one_parent_3: edge_0_3_0_0 + edge_1_3_0_0 + edge_2_3_0_0 + edge_4_3_0_0
   + edge_5_3_0_0 + edge_7_3_0_0 + edge_11_3_0_0 + edge_12_3_0_0
   + edge_13_3_0_0 + edge_14_3_0_0 + edge_15_3_0_0 + edge_16_3_0_0
   + edge_17_3_0_0 + edge_19_3_0_0 = 1
 consume_one_flow_unit_3: flow_0_3_0_0 + flow_1_3_0_0 + flow_2_3_0_0
   - flow_3_1_0_0 - flow_3_2_0_0 - flow_3_4_0_0 - flow_3_5_0_0
   - flow_3_6_0_0 - flow_3_7_0_0 - flow_3_8_0_0 - flow_3_9_0_0
   - flow_3_11_0_0 - flow_3_12_0_0 - flow_3_13_0_0 - flow_3_14_0_0
   - flow_3_15_0_0 - flow_3_16_0_0 - flow_3_17_0_0 - flow_3_18_0_0
   - flow_3_19_0_0 - flow_3_20_0_0 + flow_4_3_0_0 + flow_5_3_0_0
   + flow_7_3_0_0 + flow_11_3_0_0 + flow_12_3_0_0 + flow_13_3_0_0
   + flow_14_3_0_0 + flow_15_3_0_0 + flow_16_3_0_0 + flow_17_3_0_0
   + flow_19_3_0_0 = 1
 one_parent_4: edge_2_4_0_0 + edge_3_4_0_0 + edge_5_4_0_0 + edge_7_4_0_0
   + edge_15_4_0_0 + edge_16_4_0_0 + edge_17_4_0_0 = 1
 consume_one_flow_unit_4: flow_2_4_0_0 + flow_3_4_0_0 - flow_4_1_0_0
   - flow_4_2_0_0 - flow_4_3_0_0 - flow_4_7_0_0 - flow_4_15_0_0
   - flow_4_17_0_0 + flow_5_4_0_0 + flow_7_4_0_0 + flow_15_4_0_0
   + flow_16_4_0_0 + flow_17_4_0_0 = 1
 one_parent_5: edge_0_5_0_0 + edge_1_5_0_0 + edge_2_5_0_0 + edge_3_5_0_0
   + edge_7_5_0_0 + edge_9_5_0_0 + edge_11_5_0_0 + edge_12_5_0_0
   + edge_13_5_0_0 + edge_14_5_0_0 + edge_15_5_0_0 + edge_16_5_0_0
   + edge_17_5_0_0 = 1
 consume_one_flow_unit_5: flow_0_5_0_0 + flow_1_5_0_0 + flow_2_5_0_0
   + flow_3_5_0_0 - flow_5_1_0_0 - flow_5_2_0_0 - flow_5_3_0_0
   - flow_5_4_0_0 - flow_5_6_0_0 - flow_5_7_0_0 - flow_5_8_0_0
   - flow_5_9_0_0 - flow_5_11_0_0 - flow_5_12_0_0 - flow_5_13_0_0
   - flow_5_14_0_0 - flow_5_15_0_0 - flow_5_16_0_0 - flow_5_17_0_0
   - flow_5_18_0_0 - flow_5_19_0_0 - flow_5_20_0_0 + flow_7_5_0_0
   + flow_9_5_0_0 + flow_11_5_0_0 + flow_12_5_0_0 + flow_13_5_0_0
   + flow_14_5_0_0 + flow_15_5_0_0 + flow_16_5_0_0 + flow_17_5_0_0 = 1
 one_parent_6: edge_1_6_0_0 + edge_3_6_0_0 + edge_5_6_0_0 + edge_7_6_0_0
   + edge_11_6_0_0 + edge_14_6_0_0 = 1
 consume_one_flow_unit_6: flow_1_6_0_0 + flow_3_6_0_0 + flow_5_6_0_0
   - flow_6_8_0_0 - flow_6_9_0_0 + flow_7_6_0_0 + flow_11_6_0_0
   + flow_14_6_0_0 = 1
 one_parent_7: edge_0_7_0_0 + edge_1_7_0_0 + edge_2_7_0_0 + edge_3_7_0_0
   + edge_4_7_0_0 + edge_5_7_0_0 + edge_8_7_0_0 + edge_9_7_0_0
   + edge_11_7_0_0 + edge_14_7_0_0 + edge_15_7_0_0 + edge_17_7_0_0 = 1
 consume_one_flow_unit_7: flow_0_7_0_0 + flow_1_7_0_0 + flow_2_7_0_0
   + flow_3_7_0_0 + flow_4_7_0_0 + flow_5_7_0_0 - flow_7_1_0_0
   - flow_7_2_0_0 - flow_7_3_0_0 - flow_7_4_0_0 - flow_7_5_0_0
   - flow_7_6_0_0 - flow_7_8_0_0 - flow_7_9_0_0 - flow_7_11_0_0
   - flow_7_12_0_0 - flow_7_13_0_0 - flow_7_14_0_0 - flow_7_15_0_0
   - flow_7_16_0_0 - flow_7_17_0_0 - flow_7_19_0_0 - flow_7_20_0_0
   + flow_8_7_0_0 + flow_9_7_0_0 + flow_11_7_0_0 + flow_14_7_0_0
   + flow_15_7_0_0 + flow_17_7_0_0 = 1
 one_parent_8: edge_1_8_0_0 + edge_2_8_0_0 + edge_3_8_0_0 + edge_5_8_0_0
   + edge_6_8_0_0 + edge_7_8_0_0 + edge_9_8_0_0 + edge_11_8_0_0
   + edge_13_8_0_0 + edge_14_8_0_0 + edge_17_8_0_0 = 1
 consume_one_flow_unit_8: flow_1_8_0_0 + flow_2_8_0_0 + flow_3_8_0_0
   + flow_5_8_0_0 + flow_6_8_0_0 + flow_7_8_0_0 - flow_8_7_0_0
   - flow_8_9_0_0 - flow_8_11_0_0 + flow_9_8_0_0 + flow_11_8_0_0
   + flow_13_8_0_0 + flow_14_8_0_0 + flow_17_8_0_0 = 1
 one_parent_9: edge_1_9_0_0 + edge_2_9_0_0 + edge_3_9_0_0 + edge_5_9_0_0
   + edge_6_9_0_0 + edge_7_9_0_0 + edge_8_9_0_0 + edge_11_9_0_0
   + edge_12_9_0_0 + edge_13_9_0_0 + edge_14_9_0_0 = 1
 consume_one_flow_unit_9: flow_1_9_0_0 + flow_2_9_0_0 + flow_3_9_0_0
   + flow_5_9_0_0 + flow_6_9_0_0 + flow_7_9_0_0 + flow_8_9_0_0
   - flow_9_5_0_0 - flow_9_7_0_0 - flow_9_8_0_0 - flow_9_11_0_0
   - flow_9_12_0_0 - flow_9_13_0_0 + flow_11_9_0_0 + flow_12_9_0_0
   + flow_13_9_0_0 + flow_14_9_0_0 = 1
 one_parent_10: = 1
 consume_one_flow_unit_10: = 1
 one_parent_11: edge_2_11_0_0 + edge_3_11_0_0 + edge_5_11_0_0
   + edge_7_11_0_0 + edge_8_11_0_0 + edge_9_11_0_0 + edge_11_11_0_0
   + edge_12_11_0_0 + edge_13_11_0_0 + edge_14_11_0_0 + edge_15_11_0_0
   + edge_17_11_0_0 = 1
 consume_one_flow_unit_11: flow_2_11_0_0 + flow_3_11_0_0 + flow_5_11_0_0
   + flow_7_11_0_0 + flow_8_11_0_0 + flow_9_11_0_0 - flow_11_1_0_0
   - flow_11_2_0_0 - flow_11_3_0_0 - flow_11_5_0_0 - flow_11_6_0_0
   - flow_11_7_0_0 - flow_11_8_0_0 - flow_11_9_0_0 - flow_11_12_0_0
   - flow_11_13_0_0 - flow_11_14_0_0 - flow_11_15_0_0 - flow_11_16_0_0
   - flow_11_17_0_0 - flow_11_18_0_0 - flow_11_19_0_0 - flow_11_20_0_0
   + flow_12_11_0_0 + flow_13_11_0_0 + flow_14_11_0_0 + flow_15_11_0_0
   + flow_17_11_0_0 = 1
 one_parent_12: edge_2_12_0_0 + edge_3_12_0_0 + edge_5_12_0_0
   + edge_7_12_0_0 + edge_9_12_0_0 + edge_11_12_0_0 + edge_13_12_0_0
   + edge_14_12_0_0 + edge_15_12_0_0 + edge_16_12_0_0 + edge_17_12_0_0
   + edge_19_12_0_0 = 1
 consume_one_flow_unit_12: flow_2_12_0_0 + flow_3_12_0_0 + flow_5_12_0_0
   + flow_7_12_0_0 + flow_9_12_0_0 + flow_11_12_0_0 - flow_12_3_0_0
   - flow_12_5_0_0 - flow_12_9_0_0 - flow_12_11_0_0 - flow_12_13_0_0
   - flow_12_14_0_0 - flow_12_15_0_0 + flow_13_12_0_0 + flow_14_12_0_0
   + flow_15_12_0_0 + flow_16_12_0_0 + flow_17_12_0_0 + flow_19_12_0_0 = 1
 one_parent_13: edge_2_13_0_0 + edge_3_13_0_0 + edge_5_13_0_0
   + edge_7_13_0_0 + edge_9_13_0_0 + edge_11_13_0_0 + edge_12_13_0_0
   + edge_14_13_0_0 + edge_15_13_0_0 + edge_16_13_0_0 + edge_17_13_0_0
   + edge_19_13_0_0 = 1
 consume_one_flow_unit_13: flow_2_13_0_0 + flow_3_13_0_0 + flow_5_13_0_0
   + flow_7_13_0_0 + flow_9_13_0_0 + flow_11_13_0_0 + flow_12_13_0_0
   - flow_13_1_0_0 - flow_13_2_0_0 - flow_13_3_0_0 - flow_13_5_0_0
   - flow_13_8_0_0 - flow_13_9_0_0 - flow_13_11_0_0 - flow_13_12_0_0
   - flow_13_14_0_0 - flow_13_15_0_0 - flow_13_16_0_0 - flow_13_17_0_0
   - flow_13_18_0_0 - flow_13_19_0_0 - flow_13_20_0_0 + flow_14_13_0_0
   + flow_15_13_0_0 + flow_16_13_0_0 + flow_17_13_0_0 + flow_19_13_0_0 = 1
 one_parent_14: edge_0_14_0_0 + edge_2_14_0_0 + edge_3_14_0_0
   + edge_5_14_0_0 + edge_7_14_0_0 + edge_11_14_0_0 + edge_12_14_0_0
   + edge_13_14_0_0 + edge_15_14_0_0 + edge_16_14_0_0 + edge_17_14_0_0
   + edge_19_14_0_0 = 1
 consume_one_flow_unit_14: flow_0_14_0_0 + flow_2_14_0_0 + flow_3_14_0_0
   + flow_5_14_0_0 + flow_7_14_0_0 + flow_11_14_0_0 + flow_12_14_0_0
   + flow_13_14_0_0 - flow_14_1_0_0 - flow_14_2_0_0 - flow_14_3_0_0
   - flow_14_5_0_0 - flow_14_6_0_0 - flow_14_7_0_0 - flow_14_8_0_0
   - flow_14_9_0_0 - flow_14_11_0_0 - flow_14_12_0_0 - flow_14_13_0_0
   - flow_14_15_0_0 - flow_14_16_0_0 - flow_14_17_0_0 - flow_14_18_0_0
   - flow_14_19_0_0 - flow_14_20_0_0 + flow_15_14_0_0 + flow_16_14_0_0
   + flow_17_14_0_0 + flow_19_14_0_0 = 1
 one_parent_15: edge_0_15_0_0 + edge_2_15_0_0 + edge_3_15_0_0
   + edge_4_15_0_0 + edge_5_15_0_0 + edge_7_15_0_0 + edge_11_15_0_0
   + edge_12_15_0_0 + edge_13_15_0_0 + edge_14_15_0_0 + edge_15_15_0_0
   + edge_16_15_0_0 + edge_17_15_0_0 + edge_18_15_0_0 + edge_19_15_0_0 = 1
 consume_one_flow_unit_15: flow_0_15_0_0 + flow_2_15_0_0 + flow_3_15_0_0
   + flow_4_15_0_0 + flow_5_15_0_0 + flow_7_15_0_0 + flow_11_15_0_0
   + flow_12_15_0_0 + flow_13_15_0_0 + flow_14_15_0_0 - flow_15_1_0_0
   - flow_15_2_0_0 - flow_15_3_0_0 - flow_15_4_0_0 - flow_15_5_0_0
   - flow_15_7_0_0 - flow_15_11_0_0 - flow_15_12_0_0 - flow_15_13_0_0
   - flow_15_14_0_0 - flow_15_16_0_0 - flow_15_17_0_0 - flow_15_18_0_0
   - flow_15_19_0_0 - flow_15_20_0_0 + flow_16_15_0_0 + flow_17_15_0_0
   + flow_18_15_0_0 + flow_19_15_0_0 = 1
 one_parent_16: edge_0_16_0_0 + edge_2_16_0_0 + edge_3_16_0_0
   + edge_5_16_0_0 + edge_7_16_0_0 + edge_11_16_0_0 + edge_13_16_0_0
   + edge_14_16_0_0 + edge_15_16_0_0 + edge_17_16_0_0 + edge_18_16_0_0
   + edge_19_16_0_0 = 1
 consume_one_flow_unit_16: flow_0_16_0_0 + flow_2_16_0_0 + flow_3_16_0_0
   + flow_5_16_0_0 + flow_7_16_0_0 + flow_11_16_0_0 + flow_13_16_0_0
   + flow_14_16_0_0 + flow_15_16_0_0 - flow_16_2_0_0 - flow_16_3_0_0
   - flow_16_4_0_0 - flow_16_5_0_0 - flow_16_12_0_0 - flow_16_13_0_0
   - flow_16_14_0_0 - flow_16_15_0_0 - flow_16_17_0_0 - flow_16_18_0_0
   - flow_16_19_0_0 - flow_16_20_0_0 + flow_17_16_0_0 + flow_18_16_0_0
   + flow_19_16_0_0 = 1
 one_parent_17: edge_0_17_0_0 + edge_2_17_0_0 + edge_3_17_0_0
   + edge_4_17_0_0 + edge_5_17_0_0 + edge_7_17_0_0 + edge_11_17_0_0
   + edge_13_17_0_0 + edge_14_17_0_0 + edge_15_17_0_0 + edge_16_17_0_0
   + edge_18_17_0_0 + edge_19_17_0_0 = 1
 consume_one_flow_unit_17: flow_0_17_0_0 + flow_2_17_0_0 + flow_3_17_0_0
   + flow_4_17_0_0 + flow_5_17_0_0 + flow_7_17_0_0 + flow_11_17_0_0
   + flow_13_17_0_0 + flow_14_17_0_0 + flow_15_17_0_0 + flow_16_17_0_0
   - flow_17_1_0_0 - flow_17_2_0_0 - flow_17_3_0_0 - flow_17_4_0_0
   - flow_17_5_0_0 - flow_17_7_0_0 - flow_17_8_0_0 - flow_17_11_0_0
   - flow_17_12_0_0 - flow_17_13_0_0 - flow_17_14_0_0 - flow_17_15_0_0
   - flow_17_16_0_0 - flow_17_18_0_0 - flow_17_19_0_0 - flow_17_20_0_0
   + flow_18_17_0_0 + flow_19_17_0_0 = 1
 one_parent_18: edge_0_18_0_0 + edge_2_18_0_0 + edge_3_18_0_0
   + edge_5_18_0_0 + edge_11_18_0_0 + edge_13_18_0_0 + edge_14_18_0_0
   + edge_15_18_0_0 + edge_16_18_0_0 + edge_17_18_0_0 + edge_19_18_0_0
   + edge_20_18_0_0 = 1
 consume_one_flow_unit_18: flow_0_18_0_0 + flow_2_18_0_0 + flow_3_18_0_0
   + flow_5_18_0_0 + flow_11_18_0_0 + flow_13_18_0_0 + flow_14_18_0_0
   + flow_15_18_0_0 + flow_16_18_0_0 + flow_17_18_0_0 - flow_18_15_0_0
   - flow_18_16_0_0 - flow_18_17_0_0 - flow_18_19_0_0 - flow_18_20_0_0
   + flow_19_18_0_0 + flow_20_18_0_0 = 1
 one_parent_19: edge_3_19_0_0 + edge_5_19_0_0 + edge_7_19_0_0
   + edge_11_19_0_0 + edge_13_19_0_0 + edge_14_19_0_0 + edge_15_19_0_0
   + edge_16_19_0_0 + edge_17_19_0_0 + edge_18_19_0_0 + edge_20_19_0_0 = 1
 consume_one_flow_unit_19: flow_3_19_0_0 + flow_5_19_0_0 + flow_7_19_0_0
   + flow_11_19_0_0 + flow_13_19_0_0 + flow_14_19_0_0 + flow_15_19_0_0
   + flow_16_19_0_0 + flow_17_19_0_0 + flow_18_19_0_0 - flow_19_1_0_0
   - flow_19_2_0_0 - flow_19_3_0_0 - flow_19_12_0_0 - flow_19_13_0_0
   - flow_19_14_0_0 - flow_19_15_0_0 - flow_19_16_0_0 - flow_19_17_0_0
   - flow_19_18_0_0 - flow_19_20_0_0 + flow_20_19_0_0 = 1
 one_parent_20: edge_2_20_0_0 + edge_3_20_0_0 + edge_5_20_0_0
   + edge_7_20_0_0 + edge_11_20_0_0 + edge_13_20_0_0 + edge_14_20_0_0
   + edge_15_20_0_0 + edge_16_20_0_0 + edge_17_20_0_0 + edge_18_20_0_0
   + edge_19_20_0_0 = 1
 consume_one_flow_unit_20: flow_2_20_0_0 + flow_3_20_0_0 + flow_5_20_0_0
   + flow_7_20_0_0 + flow_11_20_0_0 + flow_13_20_0_0 + flow_14_20_0_0
   + flow_15_20_0_0 + flow_16_20_0_0 + flow_17_20_0_0 + flow_18_20_0_0
   + flow_19_20_0_0 - flow_20_18_0_0 - flow_20_19_0_0 = 1
 root_flow: flow_0_1_0_0 + flow_0_2_0_0 + flow_0_3_0_0 + flow_0_5_0_0
   + flow_0_7_0_0 + flow_0_14_0_0 + flow_0_15_0_0 + flow_0_16_0_0
   + flow_0_17_0_0 + flow_0_18_0_0 = 20
 inactive_no_flow_0_1_0_0: flow_0_1_0_0 - 1000 edge_0_1_0_0 <= 0
 inactive_no_flow_0_2_0_0: flow_0_2_0_0 - 1000 edge_0_2_0_0 <= 0
 inactive_no_flow_0_3_0_0: flow_0_3_0_0 - 1000 edge_0_3_0_0 <= 0
 inactive_no_flow_0_5_0_0: flow_0_5_0_0 - 1000 edge_0_5_0_0 <= 0
 inactive_no_flow_0_7_0_0: flow_0_7_0_0 - 1000 edge_0_7_0_0 <= 0
 inactive_no_flow_0_14_0_0: flow_0_14_0_0 - 1000 edge_0_14_0_0 <= 0
 inactive_no_flow_0_15_0_0: flow_0_15_0_0 - 1000 edge_0_15_0_0 <= 0
 inactive_no_flow_0_16_0_0: flow_0_16_0_0 - 1000 edge_0_16_0_0 <= 0
 inactive_no_flow_0_17_0_0: flow_0_17_0_0 - 1000 edge_0_17_0_0 <= 0
 inactive_no_flow_0_18_0_0: flow_0_18_0_0 - 1000 edge_0_18_0_0 <= 0
 inactive_no_flow_1_2_0_0: flow_1_2_0_0 - 1000 edge_1_2_0_0 <= 0
 inactive_no_flow_1_3_0_0: flow_1_3_0_0 - 1000 edge_1_3_0_0 <= 0
 inactive_no_flow_1_5_0_0: flow_1_5_0_0 - 1000 edge_1_5_0_0 <= 0
 inactive_no_flow_1_6_0_0: flow_1_6_0_0 - 1000 edge_1_6_0_0 <= 0
 inactive_no_flow_1_7_0_0: flow_1_7_0_0 - 1000 edge_1_7_0_0 <= 0
 inactive_no_flow_1_8_0_0: flow_1_8_0_0 - 1000 edge_1_8_0_0 <= 0
 inactive_no_flow_1_9_0_0: flow_1_9_0_0 - 1000 edge_1_9_0_0 <= 0
 inactive_no_flow_2_1_0_0: flow_2_1_0_0 - 1000 edge_2_1_0_0 <= 0
 inactive_no_flow_2_3_0_0: flow_2_3_0_0 - 1000 edge_2_3_0_0 <= 0
 inactive_no_flow_2_4_0_0: flow_2_4_0_0 - 1000 edge_2_4_0_0 <= 0
 inactive_no_flow_2_5_0_0: flow_2_5_0_0 - 1000 edge_2_5_0_0 <= 0
 inactive_no_flow_2_7_0_0: flow_2_7_0_0 - 1000 edge_2_7_0_0 <= 0
 inactive_no_flow_2_8_0_0: flow_2_8_0_0 - 1000 edge_2_8_0_0 <= 0
 inactive_no_flow_2_9_0_0: flow_2_9_0_0 - 1000 edge_2_9_0_0 <= 0
 inactive_no_flow_2_11_0_0: flow_2_11_0_0 - 1000 edge_2_11_0_0 <= 0
 inactive_no_flow_2_12_0_0: flow_2_12_0_0 - 1000 edge_2_12_0_0 <= 0
 inactive_no_flow_2_13_0_0: flow_2_13_0_0 - 1000 edge_2_13_0_0 <= 0
 inactive_no_flow_2_14_0_0: flow_2_14_0_0 - 1000 edge_2_14_0_0 <= 0
 inactive_no_flow_2_15_0_0: flow_2_15_0_0 - 1000 edge_2_15_0_0 <= 0
 inactive_no_flow_2_16_0_0: flow_2_16_0_0 - 1000 edge_2_16_0_0 <= 0
 inactive_no_flow_2_17_0_0: flow_2_17_0_0 - 1000 edge_2_17_0_0 <= 0
 inactive_no_flow_2_18_0_0: flow_2_18_0_0 - 1000 edge_2_18_0_0 <= 0
 inactive_no_flow_2_20_0_0: flow_2_20_0_0 - 1000 edge_2_20_0_0 <= 0
 inactive_no_flow_3_1_0_0: flow_3_1_0_0 - 1000 edge_3_1_0_0 <= 0
 inactive_no_flow_3_2_0_0: flow_3_2_0_0 - 1000 edge_3_2_0_0 <= 0
 inactive_no_flow_3_4_0_0: flow_3_4_0_0 - 1000 edge_3_4_0_0 <= 0
 inactive_no_flow_3_5_0_0: flow_3_5_0_0 - 1000 edge_3_5_0_0 <= 0
 inactive_no_flow_3_6_0_0: flow_3_6_0_0 - 1000 edge_3_6_0_0 <= 0
 inactive_no_flow_3_7_0_0: flow_3_7_0_0 - 1000 edge_3_7_0_0 <= 0
 inactive_no_flow_3_8_0_0: flow_3_8_0_0 - 1000 edge_3_8_0_0 <= 0
 inactive_no_flow_3_9_0_0: flow_3_9_0_0 - 1000 edge_3_9_0_0 <= 0
 inactive_no_flow_3_11_0_0: flow_3_11_0_0 - 1000 edge_3_11_0_0 <= 0
 inactive_no_flow_3_12_0_0: flow_3_12_0_0 - 1000 edge_3_12_0_0 <= 0
 inactive_no_flow_3_13_0_0: flow_3_13_0_0 - 1000 edge_3_13_0_0 <= 0
 inactive_no_flow_3_14_0_0: flow_3_14_0_0 - 1000 edge_3_14_0_0 <= 0
 inactive_no_flow_3_15_0_0: flow_3_15_0_0 - 1000 edge_3_15_0_0 <= 0
 inactive_no_flow_3_16_0_0: flow_3_16_0_0 - 1000 edge_3_16_0_0 <= 0
 inactive_no_flow_3_17_0_0: flow_3_17_0_0 - 1000 edge_3_17_0_0 <= 0
 inactive_no_flow_3_18_0_0: flow_3_18_0_0 - 1000 edge_3_18_0_0 <= 0
 inactive_no_flow_3_19_0_0: flow_3_19_0_0 - 1000 edge_3_19_0_0 <= 0
 inactive_no_flow_3_20_0_0: flow_3_20_0_0 - 1000 edge_3_20_0_0 <= 0
 inactive_no_flow_4_1_0_0: flow_4_1_0_0 - 1000 edge_4_1_0_0 <= 0
 inactive_no_flow_4_2_0_0: flow_4_2_0_0 - 1000 edge_4_2_0_0 <= 0
 inactive_no_flow_4_3_0_0: flow_4_3_0_0 - 1000 edge_4_3_0_0 <= 0
 inactive_no_flow_4_7_0_0: flow_4_7_0_0 - 1000 edge_4_7_0_0 <= 0
 inactive_no_flow_4_15_0_0: flow_4_15_0_0 - 1000 edge_4_15_0_0 <= 0
 inactive_no_flow_4_17_0_0: flow_4_17_0_0 - 1000 edge_4_17_0_0 <= 0
 inactive_no_flow_5_1_0_0: flow_5_1_0_0 - 1000 edge_5_1_0_0 <= 0
 inactive_no_flow_5_2_0_0: flow_5_2_0_0 - 1000 edge_5_2_0_0 <= 0
 inactive_no_flow_5_3_0_0: flow_5_3_0_0 - 1000 edge_5_3_0_0 <= 0
 inactive_no_flow_5_4_0_0: flow_5_4_0_0 - 1000 edge_5_4_0_0 <= 0
 inactive_no_flow_5_6_0_0: flow_5_6_0_0 - 1000 edge_5_6_0_0 <= 0
 inactive_no_flow_5_7_0_0: flow_5_7_0_0 - 1000 edge_5_7_0_0 <= 0
 inactive_no_flow_5_8_0_0: flow_5_8_0_0 - 1000 edge_5_8_0_0 <= 0
 inactive_no_flow_5_9_0_0: flow_5_9_0_0 - 1000 edge_5_9_0_0 <= 0
 inactive_no_flow_5_11_0_0: flow_5_11_0_0 - 1000 edge_5_11_0_0 <= 0
 inactive_no_flow_5_12_0_0: flow_5_12_0_0 - 1000 edge_5_12_0_0 <= 0
 inactive_no_flow_5_13_0_0: flow_5_13_0_0 - 1000 edge_5_13_0_0 <= 0
 inactive_no_flow_5_14_0_0: flow_5_14_0_0 - 1000 edge_5_14_0_0 <= 0
 inactive_no_flow_5_15_0_0: flow_5_15_0_0 - 1000 edge_5_15_0_0 <= 0
 inactive_no_flow_5_16_0_0: flow_5_16_0_0 - 1000 edge_5_16_0_0 <= 0
 inactive_no_flow_5_17_0_0: flow_5_17_0_0 - 1000 edge_5_17_0_0 <= 0
 inactive_no_flow_5_18_0_0: flow_5_18_0_0 - 1000 edge_5_18_0_0 <= 0
 inactive_no_flow_5_19_0_0: flow_5_19_0_0 - 1000 edge_5_19_0_0 <= 0
 inactive_no_flow_5_20_0_0: flow_5_20_0_0 - 1000 edge_5_20_0_0 <= 0
 inactive_no_flow_6_8_0_0: flow_6_8_0_0 - 1000 edge_6_8_0_0 <= 0
 inactive_no_flow_6_9_0_0: flow_6_9_0_0 - 1000 edge_6_9_0_0 <= 0
 inactive_no_flow_7_1_0_0: flow_7_1_0_0 - 1000 edge_7_1_0_0 <= 0
 inactive_no_flow_7_2_0_0: flow_7_2_0_0 - 1000 edge_7_2_0_0 <= 0
 inactive_no_flow_7_3_0_0: flow_7_3_0_0 - 1000 edge_7_3_0_0 <= 0
 inactive_no_flow_7_4_0_0: flow_7_4_0_0 - 1000 edge_7_4_0_0 <= 0
 inactive_no_flow_7_5_0_0: flow_7_5_0_0 - 1000 edge_7_5_0_0 <= 0
 inactive_no_flow_7_6_0_0: flow_7_6_0_0 - 1000 edge_7_6_0_0 <= 0
 inactive_no_flow_7_8_0_0: flow_7_8_0_0 - 1000 edge_7_8_0_0 <= 0
 inactive_no_flow_7_9_0_0: flow_7_9_0_0 - 1000 edge_7_9_0_0 <= 0
 inactive_no_flow_7_11_0_0: flow_7_11_0_0 - 1000 edge_7_11_0_0 <= 0
 inactive_no_flow_7_12_0_0: flow_7_12_0_0 - 1000 edge_7_12_0_0 <= 0
 inactive_no_flow_7_13_0_0: flow_7_13_0_0 - 1000 edge_7_13_0_0 <= 0
 inactive_no_flow_7_14_0_0: flow_7_14_0_0 - 1000 edge_7_14_0_0 <= 0
 inactive_no_flow_7_15_0_0: flow_7_15_0_0 - 1000 edge_7_15_0_0 <= 0
 inactive_no_flow_7_16_0_0: flow_7_16_0_0 - 1000 edge_7_16_0_0 <= 0
 inactive_no_flow_7_17_0_0: flow_7_17_0_0 - 1000 edge_7_17_0_0 <= 0
 inactive_no_flow_7_19_0_0: flow_7_19_0_0 - 1000 edge_7_19_0_0 <= 0
 inactive_no_flow_7_20_0_0: flow_7_20_0_0 - 1000 edge_7_20_0_0 <= 0
 inactive_no_flow_8_7_0_0: flow_8_7_0_0 - 1000 edge_8_7_0_0 <= 0
 inactive_no_flow_8_9_0_0: flow_8_9_0_0 - 1000 edge_8_9_0_0 <= 0
 inactive_no_flow_8_11_0_0: flow_8_11_0_0 - 1000 edge_8_11_0_0 <= 0
 inactive_no_flow_9_5_0_0: flow_9_5_0_0 - 1000 edge_9_5_0_0 <= 0
 inactive_no_flow_9_7_0_0: flow_9_7_0_0 - 1000 edge_9_7_0_0 <= 0
 inactive_no_flow_9_8_0_0: flow_9_8_0_0 - 1000 edge_9_8_0_0 <= 0
 inactive_no_flow_9_11_0_0: flow_9_11_0_0 - 1000 edge_9_11_0_0 <= 0
 inactive_no_flow_9_12_0_0: flow_9_12_0_0 - 1000 edge_9_12_0_0 <= 0
 inactive_no_flow_9_13_0_0: flow_9_13_0_0 - 1000 edge_9_13_0_0 <= 0
 inactive_no_flow_11_1_0_0: flow_11_1_0_0 - 1000 edge_11_1_0_0 <= 0
 inactive_no_flow_11_2_0_0: flow_11_2_0_0 - 1000 edge_11_2_0_0 <= 0
 inactive_no_flow_11_3_0_0: flow_11_3_0_0 - 1000 edge_11_3_0_0 <= 0
 inactive_no_flow_11_5_0_0: flow_11_5_0_0 - 1000 edge_11_5_0_0 <= 0
 inactive_no_flow_11_6_0_0: flow_11_6_0_0 - 1000 edge_11_6_0_0 <= 0
 inactive_no_flow_11_7_0_0: flow_11_7_0_0 - 1000 edge_11_7_0_0 <= 0
 inactive_no_flow_11_8_0_0: flow_11_8_0_0 - 1000 edge_11_8_0_0 <= 0
 inactive_no_flow_11_9_0_0: flow_11_9_0_0 - 1000 edge_11_9_0_0 <= 0
 inactive_no_flow_11_11_0_0: flow_11_11_0_0 - 1000 edge_11_11_0_0 <= 0
 inactive_no_flow_11_12_0_0: flow_11_12_0_0 - 1000 edge_11_12_0_0 <= 0
 inactive_no_flow_11_13_0_0: flow_11_13_0_0 - 1000 edge_11_13_0_0 <= 0
 inactive_no_flow_11_14_0_0: flow_11_14_0_0 - 1000 edge_11_14_0_0 <= 0
 inactive_no_flow_11_15_0_0: flow_11_15_0_0 - 1000 edge_11_15_0_0 <= 0
 inactive_no_flow_11_16_0_0: flow_11_16_0_0 - 1000 edge_11_16_0_0 <= 0
 inactive_no_flow_11_17_0_0: flow_11_17_0_0 - 1000 edge_11_17_0_0 <= 0
 inactive_no_flow_11_18_0_0: flow_11_18_0_0 - 1000 edge_11_18_0_0 <= 0
 inactive_no_flow_11_19_0_0: flow_11_19_0_0 - 1000 edge_11_19_0_0 <= 0
 inactive_no_flow_11_20_0_0: flow_11_20_0_0 - 1000 edge_11_20_0_0 <= 0
 inactive_no_flow_12_3_0_0: flow_12_3_0_0 - 1000 edge_12_3_0_0 <= 0
 inactive_no_flow_12_5_0_0: flow_12_5_0_0 - 1000 edge_12_5_0_0 <= 0
 inactive_no_flow_12_9_0_0: flow_12_9_0_0 - 1000 edge_12_9_0_0 <= 0
 inactive_no_flow_12_11_0_0: flow_12_11_0_0 - 1000 edge_12_11_0_0 <= 0
 inactive_no_flow_12_13_0_0: flow_12_13_0_0 - 1000 edge_12_13_0_0 <= 0
 inactive_no_flow_12_14_0_0: flow_12_14_0_0 - 1000 edge_12_14_0_0 <= 0
 inactive_no_flow_12_15_0_0: flow_12_15_0_0 - 1000 edge_12_15_0_0 <= 0
 inactive_no_flow_13_1_0_0: flow_13_1_0_0 - 1000 edge_13_1_0_0 <= 0
 inactive_no_flow_13_2_0_0: flow_13_2_0_0 - 1000 edge_13_2_0_0 <= 0
 inactive_no_flow_13_3_0_0: flow_13_3_0_0 - 1000 edge_13_3_0_0 <= 0
 inactive_no_flow_13_5_0_0: flow_13_5_0_0 - 1000 edge_13_5_0_0 <= 0
 inactive_no_flow_13_8_0_0: flow_13_8_0_0 - 1000 edge_13_8_0_0 <= 0
 inactive_no_flow_13_9_0_0: flow_13_9_0_0 - 1000 edge_13_9_0_0 <= 0
 inactive_no_flow_13_11_0_0: flow_13_11_0_0 - 1000 edge_13_11_0_0 <= 0
 inactive_no_flow_13_12_0_0: flow_13_12_0_0 - 1000 edge_13_12_0_0 <= 0
 inactive_no_flow_13_14_0_0: flow_13_14_0_0 - 1000 edge_13_14_0_0 <= 0
 inactive_no_flow_13_15_0_0: flow_13_15_0_0 - 1000 edge_13_15_0_0 <= 0
 inactive_no_flow_13_16_0_0: flow_13_16_0_0 - 1000 edge_13_16_0_0 <= 0
 inactive_no_flow_13_17_0_0: flow_13_17_0_0 - 1000 edge_13_17_0_0 <= 0
 inactive_no_flow_13_18_0_0: flow_13_18_0_0 - 1000 edge_13_18_0_0 <= 0
 inactive_no_flow_13_19_0_0: flow_13_19_0_0 - 1000 edge_13_19_0_0 <= 0
 inactive_no_flow_13_20_0_0: flow_13_20_0_0 - 1000 edge_13_20_0_0 <= 0
 inactive_no_flow_14_1_0_0: flow_14_1_0_0 - 1000 edge_14_1_0_0 <= 0
 inactive_no_flow_14_2_0_0: flow_14_2_0_0 - 1000 edge_14_2_0_0 <= 0
 inactive_no_flow_14_3_0_0: flow_14_3_0_0 - 1000 edge_14_3_0_0 <= 0
 inactive_no_flow_14_5_0_0: flow_14_5_0_0 - 1000 edge_14_5_0_0 <= 0
 inactive_no_flow_14_6_0_0: flow_14_6_0_0 - 1000 edge_14_6_0_0 <= 0
 inactive_no_flow_14_7_0_0: flow_14_7_0_0 - 1000 edge_14_7_0_0 <= 0
 inactive_no_flow_14_8_0_0: flow_14_8_0_0 - 1000 edge_14_8_0_0 <= 0
 inactive_no_flow_14_9_0_0: flow_14_9_0_0 - 1000 edge_14_9_0_0 <= 0
 inactive_no_flow_14_11_0_0: flow_14_11_0_0 - 1000 edge_14_11_0_0 <= 0
 inactive_no_flow_14_12_0_0: flow_14_12_0_0 - 1000 edge_14_12_0_0 <= 0
 inactive_no_flow_14_13_0_0: flow_14_13_0_0 - 1000 edge_14_13_0_0 <= 0
 inactive_no_flow_14_15_0_0: flow_14_15_0_0 - 1000 edge_14_15_0_0 <= 0
 inactive_no_flow_14_16_0_0: flow_14_16_0_0 - 1000 edge_14_16_0_0 <= 0
 inactive_no_flow_14_17_0_0: flow_14_17_0_0 - 1000 edge_14_17_0_0 <= 0
 inactive_no_flow_14_18_0_0: flow_14_18_0_0 - 1000 edge_14_18_0_0 <= 0
 inactive_no_flow_14_19_0_0: flow_14_19_0_0 - 1000 edge_14_19_0_0 <= 0
 inactive_no_flow_14_20_0_0: flow_14_20_0_0 - 1000 edge_14_20_0_0 <= 0
 inactive_no_flow_15_1_0_0: flow_15_1_0_0 - 1000 edge_15_1_0_0 <= 0
 inactive_no_flow_15_2_0_0: flow_15_2_0_0 - 1000 edge_15_2_0_0 <= 0
 inactive_no_flow_15_3_0_0: flow_15_3_0_0 - 1000 edge_15_3_0_0 <= 0
 inactive_no_flow_15_4_0_0: flow_15_4_0_0 - 1000 edge_15_4_0_0 <= 0
 inactive_no_flow_15_5_0_0: flow_15_5_0_0 - 1000 edge_15_5_0_0 <= 0
 inactive_no_flow_15_7_0_0: flow_15_7_0_0 - 1000 edge_15_7_0_0 <= 0
 inactive_no_flow_15_11_0_0: flow_15_11_0_0 - 1000 edge_15_11_0_0 <= 0
 inactive_no_flow_15_12_0_0: flow_15_12_0_0 - 1000 edge_15_12_0_0 <= 0
 inactive_no_flow_15_13_0_0: flow_15_13_0_0 - 1000 edge_15_13_0_0 <= 0
 inactive_no_flow_15_14_0_0: flow_15_14_0_0 - 1000 edge_15_14_0_0 <= 0
 inactive_no_flow_15_15_0_0: flow_15_15_0_0 - 1000 edge_15_15_0_0 <= 0
 inactive_no_flow_15_16_0_0: flow_15_16_0_0 - 1000 edge_15_16_0_0 <= 0
 inactive_no_flow_15_17_0_0: flow_15_17_0_0 - 1000 edge_15_17_0_0 <= 0
 inactive_no_flow_15_18_0_0: flow_15_18_0_0 - 1000 edge_15_18_0_0 <= 0
 inactive_no_flow_15_19_0_0: flow_15_19_0_0 - 1000 edge_15_19_0_0 <= 0
 inactive_no_flow_15_20_0_0: flow_15_20_0_0 - 1000 edge_15_20_0_0 <= 0
 inactive_no_flow_16_2_0_0: flow_16_2_0_0 - 1000 edge_16_2_0_0 <= 0
 inactive_no_flow_16_3_0_0: flow_16_3_0_0 - 1000 edge_16_3_0_0 <= 0
 inactive_no_flow_16_4_0_0: flow_16_4_0_0 - 1000 edge_16_4_0_0 <= 0
 inactive_no_flow_16_5_0_0: flow_16_5_0_0 - 1000 edge_16_5_0_0 <= 0
 inactive_no_flow_16_12_0_0: flow_16_12_0_0 - 1000 edge_16_12_0_0 <= 0
 inactive_no_flow_16_13_0_0: flow_16_13_0_0 - 1000 edge_16_13_0_0 <= 0
 inactive_no_flow_16_14_0_0: flow_16_14_0_0 - 1000 edge_16_14_0_0 <= 0
 inactive_no_flow_16_15_0_0: flow_16_15_0_0 - 1000 edge_16_15_0_0 <= 0
 inactive_no_flow_16_17_0_0: flow_16_17_0_0 - 1000 edge_16_17_0_0 <= 0
 inactive_no_flow_16_18_0_0: flow_16_18_0_0 - 1000 edge_16_18_0_0 <= 0
 inactive_no_flow_16_19_0_0: flow_16_19_0_0 - 1000 edge_16_19_0_0 <= 0
 inactive_no_flow_16_20_0_0: flow_16_20_0_0 - 1000 edge_16_20_0_0 <= 0
 inactive_no_flow_17_1_0_0: flow_17_1_0_0 - 1000 edge_17_1_0_0 <= 0
 inactive_no_flow_17_2_0_0: flow_17_2_0_0 - 1000 edge_17_2_0_0 <= 0
 inactive_no_flow_17_3_0_0: flow_17_3_0_0 - 1000 edge_17_3_0_0 <= 0
 inactive_no_flow_17_4_0_0: flow_17_4_0_0 - 1000 edge_17_4_0_0 <= 0
 inactive_no_flow_17_5_0_0: flow_17_5_0_0 - 1000 edge_17_5_0_0 <= 0
 inactive_no_flow_17_7_0_0: flow_17_7_0_0 - 1000 edge_17_7_0_0 <= 0
 inactive_no_flow_17_8_0_0: flow_17_8_0_0 - 1000 edge_17_8_0_0 <= 0
 inactive_no_flow_17_11_0_0: flow_17_11_0_0 - 1000 edge_17_11_0_0 <= 0
 inactive_no_flow_17_12_0_0: flow_17_12_0_0 - 1000 edge_17_12_0_0 <= 0
 inactive_no_flow_17_13_0_0: flow_17_13_0_0 - 1000 edge_17_13_0_0 <= 0
 inactive_no_flow_17_14_0_0: flow_17_14_0_0 - 1000 edge_17_14_0_0 <= 0
 inactive_no_flow_17_15_0_0: flow_17_15_0_0 - 1000 edge_17_15_0_0 <= 0
 inactive_no_flow_17_16_0_0: flow_17_16_0_0 - 1000 edge_17_16_0_0 <= 0
 inactive_no_flow_17_18_0_0: flow_17_18_0_0 - 1000 edge_17_18_0_0 <= 0
 inactive_no_flow_17_19_0_0: flow_17_19_0_0 - 1000 edge_17_19_0_0 <= 0
 inactive_no_flow_17_20_0_0: flow_17_20_0_0 - 1000 edge_17_20_0_0 <= 0
 inactive_no_flow_18_15_0_0: flow_18_15_0_0 - 1000 edge_18_15_0_0 <= 0
 inactive_no_flow_18_16_0_0: flow_18_16_0_0 - 1000 edge_18_16_0_0 <= 0
 inactive_no_flow_18_17_0_0: flow_18_17_0_0 - 1000 edge_18_17_0_0 <= 0
 inactive_no_flow_18_19_0_0: flow_18_19_0_0 - 1000 edge_18_19_0_0 <= 0
 inactive_no_flow_18_20_0_0: flow_18_20_0_0 - 1000 edge_18_20_0_0 <= 0
 inactive_no_flow_19_1_0_0: flow_19_1_0_0 - 1000 edge_19_1_0_0 <= 0
 inactive_no_flow_19_2_0_0: flow_19_2_0_0 - 1000 edge_19_2_0_0 <= 0
 inactive_no_flow_19_3_0_0: flow_19_3_0_0 - 1000 edge_19_3_0_0 <= 0
 inactive_no_flow_19_12_0_0: flow_19_12_0_0 - 1000 edge_19_12_0_0 <= 0
 inactive_no_flow_19_13_0_0: flow_19_13_0_0 - 1000 edge_19_13_0_0 <= 0
 inactive_no_flow_19_14_0_0: flow_19_14_0_0 - 1000 edge_19_14_0_0 <= 0
 inactive_no_flow_19_15_0_0: flow_19_15_0_0 - 1000 edge_19_15_0_0 <= 0
 inactive_no_flow_19_16_0_0: flow_19_16_0_0 - 1000 edge_19_16_0_0 <= 0
 inactive_no_flow_19_17_0_0: flow_19_17_0_0 - 1000 edge_19_17_0_0 <= 0
 inactive_no_flow_19_18_0_0: flow_19_18_0_0 - 1000 edge_19_18_0_0 <= 0
 inactive_no_flow_19_20_0_0: flow_19_20_0_0 - 1000 edge_19_20_0_0 <= 0
 inactive_no_flow_20_18_0_0: flow_20_18_0_0 - 1000 edge_20_18_0_0 <= 0
 inactive_no_flow_20_19_0_0: flow_20_19_0_0 - 1000 edge_20_19_0_0 <= 0
Bounds
Binaries
 edge_0_1_0_0 edge_0_2_0_0 edge_0_3_0_0 edge_0_5_0_0 edge_0_7_0_0
 edge_0_14_0_0 edge_0_15_0_0 edge_0_16_0_0 edge_0_17_0_0 edge_0_18_0_0
 edge_1_2_0_0 edge_1_3_0_0 edge_1_5_0_0 edge_1_6_0_0 edge_1_7_0_0
 edge_1_8_0_0 edge_1_9_0_0 edge_2_1_0_0 edge_2_3_0_0 edge_2_4_0_0
 edge_2_5_0_0 edge_2_7_0_0 edge_2_8_0_0 edge_2_9_0_0 edge_2_11_0_0
 edge_2_12_0_0 edge_2_13_0_0 edge_2_14_0_0 edge_2_15_0_0 edge_2_16_0_0
 edge_2_17_0_0 edge_2_18_0_0 edge_2_20_0_0 edge_3_1_0_0 edge_3_2_0_0
 edge_3_4_0_0 edge_3_5_0_0 edge_3_6_0_0 edge_3_7_0_0 edge_3_8_0_0
 edge_3_9_0_0 edge_3_11_0_0 edge_3_12_0_0 edge_3_13_0_0 edge_3_14_0_0
 edge_3_15_0_0 edge_3_16_0_0 edge_3_17_0_0 edge_3_18_0_0 edge_3_19_0_0
 edge_3_20_0_0 edge_4_1_0_0 edge_4_2_0_0 edge_4_3_0_0 edge_4_7_0_0
 edge_4_15_0_0 edge_4_17_0_0 edge_5_1_0_0 edge_5_2_0_0 edge_5_3_0_0
 edge_5_4_0_0 edge_5_6_0_0 edge_5_7_0_0 edge_5_8_0_0 edge_5_9_0_0
 edge_5_11_0_0 edge_5_12_0_0 edge_5_13_0_0 edge_5_14_0_0 edge_5_15_0_0
 edge_5_16_0_0 edge_5_17_0_0 edge_5_18_0_0 edge_5_19_0_0 edge_5_20_0_0
 edge_6_8_0_0 edge_6_9_0_0 edge_7_1_0_0 edge_7_2_0_0 edge_7_3_0_0
 edge_7_4_0_0 edge_7_5_0_0 edge_7_6_0_0 edge_7_8_0_0 edge_7_9_0_0
 edge_7_11_0_0 edge_7_12_0_0 edge_7_13_0_0 edge_7_14_0_0 edge_7_15_0_0
 edge_7_16_0_0 edge_7_17_0_0 edge_7_19_0_0 edge_7_20_0_0 edge_8_7_0_0
 edge_8_9_0_0 edge_8_11_0_0 edge_9_5_0_0 edge_9_7_0_0 edge_9_8_0_0
 edge_9_11_0_0 edge_9_12_0_0 edge_9_13_0_0 edge_11_1_0_0 edge_11_2_0_0
 edge_11_3_0_0 edge_11_5_0_0 edge_11_6_0_0 edge_11_7_0_0 edge_11_8_0_0
 edge_11_9_0_0 edge_11_11_0_0 edge_11_12_0_0 edge_11_13_0_0 edge_11_14_0_0
 edge_11_15_0_0 edge_11_16_0_0 edge_11_17_0_0 edge_11_18_0_0 edge_11_19_0_0
 edge_11_20_0_0 edge_12_3_0_0 edge_12_5_0_0 edge_12_9_0_0 edge_12_11_0_0
 edge_12_13_0_0 edge_12_14_0_0 edge_12_15_0_0 edge_13_1_0_0 edge_13_2_0_0
 edge_13_3_0_0 edge_13_5_0_0 edge_13_8_0_0 edge_13_9_0_0 edge_13_11_0_0
 edge_13_12_0_0 edge_13_14_0_0 edge_13_15_0_0 edge_13_16_0_0 edge_13_17_0_0
 edge_13_18_0_0 edge_13_19_0_0 edge_13_20_0_0 edge_14_1_0_0 edge_14_2_0_0
 edge_14_3_0_0 edge_14_5_0_0 edge_14_6_0_0 edge_14_7_0_0 edge_14_8_0_0
 edge_14_9_0_0 edge_14_11_0_0 edge_14_12_0_0 edge_14_13_0_0 edge_14_15_0_0
 edge_14_16_0_0 edge_14_17_0_0 edge_14_18_0_0 edge_14_19_0_0 edge_14_20_0_0
 edge_15_1_0_0 edge_15_2_0_0 edge_15_3_0_0 edge_15_4_0_0 edge_15_5_0_0
 edge_15_7_0_0 edge_15_11_0_0 edge_15_12_0_0 edge_15_13_0_0 edge_15_14_0_0
 edge_15_15_0_0 edge_15_16_0_0 edge_15_17_0_0 edge_15_18_0_0 edge_15_19_0_0
 edge_15_20_0_0 edge_16_2_0_0 edge_16_3_0_0 edge_16_4_0_0 edge_16_5_0_0
 edge_16_12_0_0 edge_16_13_0_0 edge_16_14_0_0 edge_16_15_0_0 edge_16_17_0_0
 edge_16_18_0_0 edge_16_19_0_0 edge_16_20_0_0 edge_17_1_0_0 edge_17_2_0_0
 edge_17_3_0_0 edge_17_4_0_0 edge_17_5_0_0 edge_17_7_0_0 edge_17_8_0_0
 edge_17_11_0_0 edge_17_12_0_0 edge_17_13_0_0 edge_17_14_0_0 edge_17_15_0_0
 edge_17_16_0_0 edge_17_18_0_0 edge_17_19_0_0 edge_17_20_0_0 edge_18_15_0_0
 edge_18_16_0_0 edge_18_17_0_0 edge_18_19_0_0 edge_18_20_0_0 edge_19_1_0_0
 edge_19_2_0_0 edge_19_3_0_0 edge_19_12_0_0 edge_19_13_0_0 edge_19_14_0_0
 edge_19_15_0_0 edge_19_16_0_0 edge_19_17_0_0 edge_19_18_0_0 edge_19_20_0_0
 edge_20_18_0_0 edge_20_19_0_0
End
